num_nucleotides_in_original_DNA = 11;
num_nucleotides = 4;
num_DNA_pieces = 3;
max_nucleotides_in_DNA = 5;

sizes_DNA_pieces = [5, 5, 5];
DNA_nucleotides = [| 1, 2, 3, 1, 1,
                   | 1, 1, 4, 2, 4,
                   | 2, 4, 3, 3, 1 |];

min_k_value = 1;  %TODO: Should be 3 in real data
